; ./jayhorn/./sv-comp-2020/jbmc-regression/ArrayIndexOutOfBoundsException1/smt-output-with-inlining/jayhorn-tmp_0_000.smt2
(set-logic HORN)

(declare-fun |<Main: void main(JayArray_java_lang_String)>_Block4| ( Int Int Int Int Int Int Int Int Int Int Int ) Bool)
(declare-fun |<JayArray_int: void <init>(int)>_post| ( Int Int Int Int Int Int Int Int Int Int Int Int Int ) Bool)
(declare-fun |<Main: void main(JayArray_java_lang_String)>_Block10_3| ( Int Int Int Int Int Int Int Int Int Int Int Int Int Int Int Int Int Int Int Int Int Int Int Int Int Int Int Int Int Int ) Bool)
(declare-fun |<java.lang.ArrayIndexOutOfBoundsException: void <init>()>_Block0_6| ( Int Int Int Int Int Int Int Int Int Int Int Int Int Int Int Int Int Int Int Int Int Int Int Int Int Int Int Int Int Int Int Int Int Int Int Int Int Int Int Int ) Bool)
(declare-fun |<java.lang.ArrayIndexOutOfBoundsException: void <init>()>_Block0_8| ( Int Int Int Int Int Int Int Int Int Int Int Int Int Int Int Int Int Int Int Int Int Int Int Int ) Bool)
(declare-fun |<Main: void main(JayArray_java_lang_String)>_Block4_2| ( Int Int Int Int Int Int Int Int Int ) Bool)
(declare-fun |<Main: void main(JayArray_java_lang_String)>_Block2| ( Int Int Int Int Int Int Int Int Int Int Int Int Int Int Int Int Int ) Bool)
(declare-fun |<Main: void main(JayArray_java_lang_String)>_Block10_7| ( Int Int Int Int Int Int Int Int Int Int Int Int Int Int Int Int Int Int Int Int ) Bool)
(declare-fun |<java.lang.ArrayIndexOutOfBoundsException: void <init>()>_Block0_3| ( Int Int Int Int Int Int Int Int Int Int Int Int Int Int Int Int Int Int Int Int Int Int Int Int Int Int Int Int Int Int ) Bool)
(declare-fun |<java.lang.ArrayIndexOutOfBoundsException: void <init>()>_Block0| ( Int Int Int Int Int Int Int Int Int Int Int Int Int Int Int Int Int Int Int Int Int Int Int Int ) Bool)
(declare-fun |Assert #0: Main.java, line 13| ( ) Bool)
(declare-fun |<JayArray_int: void <init>(int)>_Block1_5| ( Int Int Int Int Int Int Int Int Int Int Int Int Int Int Int Int Int Int Int ) Bool)
(declare-fun |<Main: void main(JayArray_java_lang_String)>_Block2_3| ( Int Int Int Int Int Int Int Int Int Int Int Int Int Int Int ) Bool)
(declare-fun |<java.lang.ArrayIndexOutOfBoundsException: void <init>()>_Block0_4| ( Int Int Int Int Int Int Int Int Int Int Int Int Int Int Int Int Int Int Int Int Int Int Int Int Int Int Int Int Int Int Int Int Int ) Bool)
(declare-fun |<Main: void main(JayArray_java_lang_String)>_Block2_1| ( Int Int Int Int Int Int Int Int Int Int ) Bool)
(declare-fun |<Main: void main(JayArray_java_lang_String)>_Block2_5| ( Int Int Int Int Int Int Int Int Int Int Int Int Int Int Int ) Bool)
(declare-fun |<java.lang.ArrayIndexOutOfBoundsException: void <init>()>_Block0_5| ( Int Int Int Int Int Int Int Int Int Int Int Int Int Int Int Int Int Int Int Int Int Int Int Int Int Int Int Int Int Int Int Int Int Int Int Int ) Bool)
(declare-fun |Assert #1: Main.java, line 18| ( ) Bool)
(declare-fun |<java.lang.ArrayIndexOutOfBoundsException: void <init>()>_Block0_7| ( Int Int Int Int Int Int Int Int Int Int Int Int Int Int Int Int Int Int Int Int Int Int Int Int Int Int Int Int Int Int Int Int Int Int Int Int Int Int Int Int Int Int Int ) Bool)
(declare-fun |<JayArray_int: void <init>(int)>_Block1_1| ( Int Int Int Int Int Int Int Int Int Int Int Int Int ) Bool)
(declare-fun |<Main: void main(JayArray_java_lang_String)>_Block10_1| ( Int Int Int Int Int Int Int Int Int Int Int Int Int Int Int Int Int Int Int Int Int Int Int Int Int Int Int Int ) Bool)
(declare-fun |<Main: void main(JayArray_java_lang_String)>_Block4_4| ( Int Int Int Int Int Int Int Int Int ) Bool)
(declare-fun |CHC_COMP_FALSE| ( ) Bool)
(declare-fun |<JayArray_int: void <init>(int)>_Block1_6| ( Int Int Int Int Int Int Int Int Int Int Int Int Int ) Bool)
(declare-fun |<Main: void main(JayArray_java_lang_String)>_Block10_8| ( Int Int Int Int Int Int Int Int Int Int Int Int Int Int Int Int Int Int Int Int Int ) Bool)
(declare-fun |<Main: void main(JayArray_java_lang_String)>_Block2_4| ( Int Int Int Int Int Int Int Int Int Int Int Int Int Int ) Bool)
(declare-fun |<Main: void main(JayArray_java_lang_String)>_Block10_4| ( Int Int Int Int Int Int Int Int Int Int Int Int Int Int Int Int Int Int Int Int Int Int Int Int Int Int Int ) Bool)
(declare-fun |<Main: void main(JayArray_java_lang_String)>_Block10_9| ( Int Int Int Int Int Int Int Int Int Int Int Int Int Int Int Int Int Int Int Int ) Bool)
(declare-fun |<Main: void main(JayArray_java_lang_String)>_Block2_6| ( Int Int Int Int Int Int Int Int Int Int Int Int Int Int ) Bool)
(declare-fun |<JayArray_int: void <init>(int)>_Block1| ( Int Int Int Int Int Int Int Int Int Int Int Int Int ) Bool)
(declare-fun |<JayArray_int: void <init>(int)>_Block1_2| ( Int Int Int Int Int Int Int Int Int Int Int Int Int Int Int Int ) Bool)
(declare-fun |<JayArray_int: void <init>(int)>_pre| ( Int Int Int Int Int Int ) Bool)
(declare-fun |<JayArray_int: void <init>(int)>_Block0| ( Int Int Int Int Int Int Int Int Int Int Int Int Int ) Bool)
(declare-fun |<Main: void main(JayArray_java_lang_String)>_Block4_1| ( Int Int Int Int Int Int ) Bool)
(declare-fun |<java.lang.ArrayIndexOutOfBoundsException: void <init>()>_pre| ( Int Int Int Int ) Bool)
(declare-fun |<Main: void main(JayArray_java_lang_String)>_Block10_6| ( Int Int Int Int Int Int Int Int Int Int Int Int Int Int Int Int Int Int Int Int ) Bool)
(declare-fun |<java.lang.ArrayIndexOutOfBoundsException: void <init>()>_Block0_2| ( Int Int Int Int Int Int Int Int Int Int Int Int Int Int Int Int Int Int Int Int Int Int Int Int Int Int Int ) Bool)
(declare-fun |<java.lang.ArrayIndexOutOfBoundsException: void <init>()>_Block0_1| ( Int Int Int Int Int Int Int Int Int Int Int Int Int Int Int Int Int Int Int Int Int Int Int Int ) Bool)
(declare-fun |<JayArray_int: void <init>(int)>_Block1_3| ( Int Int Int Int Int Int Int Int Int Int Int Int Int Int Int Int Int ) Bool)
(declare-fun |<Main: void main(JayArray_java_lang_String)>_Block10_5| ( Int Int Int Int Int Int Int Int Int Int Int Int Int Int Int Int Int Int Int ) Bool)
(declare-fun |Assert #2: Main.java, line 20| ( ) Bool)
(declare-fun |<Main: void main(JayArray_java_lang_String)>_Block10_2| ( Int Int Int Int Int Int Int Int Int Int Int Int Int Int Int Int Int Int Int Int Int Int Int Int Int Int Int ) Bool)
(declare-fun |<Main: void main(JayArray_java_lang_String)>_Block5| ( Int Int Int Int Int Int Int Int Int Int Int Int Int Int Int ) Bool)
(declare-fun |<JayArray_int: void <init>(int)>_Block1_4| ( Int Int Int Int Int Int Int Int Int Int Int Int Int Int Int Int Int Int ) Bool)
(declare-fun |<Main: void main(JayArray_java_lang_String)>_Block4_3| ( Int Int Int Int Int Int ) Bool)
(declare-fun |<Main: void main(JayArray_java_lang_String)>_Block2_7| ( Int Int Int Int Int Int Int Int Int Int Int Int Int Int Int ) Bool)
(declare-fun |<Main: void main(JayArray_java_lang_String)>_Block2_2| ( Int Int Int Int Int Int Int Int Int Int Int Int Int Int ) Bool)
(declare-fun |<java.lang.ArrayIndexOutOfBoundsException: void <init>()>_post| ( Int Int Int Int Int Int Int Int Int Int Int Int Int Int Int Int Int Int Int Int Int Int Int Int ) Bool)
(declare-fun |<Main: void main(JayArray_java_lang_String)>_Block10| ( Int Int Int Int Int Int Int Int Int Int Int Int Int Int Int Int Int Int Int Int Int Int Int Int Int Int Int Int Int ) Bool)
(declare-fun |<Main: void main(JayArray_java_lang_String)>_pre| ( Int Int Int Int Int ) Bool)

(assert
  (forall ( (A Int) (B Int) (C Int) (D Int) (E Int) (F Int) (G Int) (H Int) (I Int) (J Int) (K Int) (L Int) (M Int) (N Int) (O Int) (P Int) (Q Int) (R Int) (S Int) (T Int) (U Int) (V Int) (W Int) (X Int) (Y Int) (v_25 Int) (v_26 Int) (v_27 Int) (v_28 Int) ) 
    (=>
      (and
        (|<Main: void main(JayArray_java_lang_String)>_pre| B M R A P)
        (and (= v_25 B) (= v_26 M) (= v_27 R) (= v_28 A))
      )
      (|<Main: void main(JayArray_java_lang_String)>_Block10|
  B
  M
  R
  A
  P
  C
  U
  Q
  K
  D
  O
  Y
  W
  I
  v_25
  v_26
  v_27
  v_28
  E
  X
  N
  F
  H
  S
  L
  G
  J
  V
  T)
    )
  )
)
(assert
  (forall ( (A Int) (B Int) (C Int) (D Int) (E Int) (F Int) (G Int) (H Int) (I Int) (J Int) (K Int) (L Int) (M Int) (N Int) (O Int) (P Int) (Q Int) (R Int) (S Int) (T Int) (U Int) (V Int) (W Int) (X Int) (Y Int) (Z Int) (v_26 Int) (v_27 Int) (v_28 Int) (v_29 Int) (v_30 Int) (v_31 Int) (v_32 Int) (v_33 Int) ) 
    (=>
      (and
        (|<Main: void main(JayArray_java_lang_String)>_Block10|
  G
  P
  E
  N
  J
  T
  R
  D
  A
  Z
  U
  K
  C
  M
  v_26
  v_27
  v_28
  v_29
  Q
  V
  S
  Y
  W
  H
  O
  L
  B
  F
  X)
        (and (= v_26 G)
     (= v_27 P)
     (= v_28 E)
     (= v_29 N)
     (= I 1)
     (= v_30 G)
     (= v_31 P)
     (= v_32 E)
     (= v_33 N))
      )
      (|<Main: void main(JayArray_java_lang_String)>_Block10_1|
  G
  P
  E
  N
  J
  T
  R
  D
  Z
  U
  K
  C
  M
  v_30
  v_31
  v_32
  v_33
  Q
  I
  S
  Y
  W
  H
  O
  L
  B
  F
  X)
    )
  )
)
(assert
  (forall ( (A Int) (B Int) (C Int) (D Int) (E Int) (F Int) (G Int) (H Int) (I Int) (J Int) (K Int) (L Int) (M Int) (N Int) (O Int) (P Int) (Q Int) (R Int) (S Int) (T Int) (U Int) (V Int) (W Int) (X Int) (v_24 Int) (v_25 Int) (v_26 Int) (v_27 Int) (v_28 Int) (v_29 Int) (v_30 Int) (v_31 Int) ) 
    (=>
      (and
        (|<Main: void main(JayArray_java_lang_String)>_Block10_1|
  X
  B
  P
  S
  M
  H
  N
  T
  D
  Q
  C
  K
  J
  v_24
  v_25
  v_26
  v_27
  R
  W
  U
  V
  L
  A
  O
  F
  I
  E
  G)
        (and (= v_24 X)
     (= v_25 B)
     (= v_26 P)
     (= v_27 S)
     (= B 137)
     (<= 0 S)
     (= X 1)
     (= v_28 X)
     (= v_29 B)
     (= v_30 P)
     (= v_31 S))
      )
      (|<Main: void main(JayArray_java_lang_String)>_Block10_2|
  X
  B
  P
  S
  M
  H
  N
  T
  D
  Q
  C
  K
  J
  v_28
  v_29
  v_30
  v_31
  W
  U
  V
  L
  A
  O
  F
  I
  E
  G)
    )
  )
)
(assert
  (forall ( (A Int) (B Int) (C Int) (D Int) (E Int) (F Int) (G Int) (H Int) (I Int) (J Int) (K Int) (L Int) (M Int) (N Int) (O Int) (P Int) (Q Int) (R Int) (S Int) (T Int) (U Int) (V Int) (W Int) (X Int) (Y Int) (Z Int) (v_26 Int) (v_27 Int) (v_28 Int) (v_29 Int) (v_30 Int) (v_31 Int) (v_32 Int) (v_33 Int) ) 
    (=>
      (and
        (|<Main: void main(JayArray_java_lang_String)>_Block10_2|
  M
  D
  O
  H
  J
  X
  I
  U
  G
  W
  E
  F
  Y
  v_26
  v_27
  v_28
  v_29
  P
  N
  Z
  B
  C
  S
  L
  R
  A
  V)
        (and (= v_26 M)
     (= v_27 D)
     (= v_28 O)
     (= v_29 H)
     (= Q 0)
     (= K 0)
     (= T 0)
     (= v_30 M)
     (= v_31 D)
     (= v_32 O)
     (= v_33 H))
      )
      (|<Main: void main(JayArray_java_lang_String)>_Block10_3|
  M
  D
  O
  H
  J
  X
  I
  U
  G
  T
  K
  Q
  W
  E
  F
  Y
  v_30
  v_31
  v_32
  v_33
  P
  N
  Z
  B
  C
  S
  L
  R
  A
  V)
    )
  )
)
(assert
  (forall ( (A Int) (B Int) (C Int) (D Int) (E Int) (F Int) (G Int) (H Int) (I Int) (J Int) (K Int) (L Int) (M Int) (N Int) (O Int) (P Int) (Q Int) (R Int) (S Int) (T Int) (U Int) (V Int) (W Int) (X Int) (Y Int) (Z Int) (v_26 Int) (v_27 Int) (v_28 Int) (v_29 Int) (v_30 Int) (v_31 Int) (v_32 Int) (v_33 Int) ) 
    (=>
      (and
        (|<Main: void main(JayArray_java_lang_String)>_Block10_3|
  N
  G
  S
  F
  T
  C
  Y
  U
  K
  H
  D
  E
  O
  B
  A
  M
  v_26
  v_27
  v_28
  v_29
  J
  Q
  P
  W
  Z
  X
  V
  L
  I
  R)
        (and (= v_26 N)
     (= v_27 G)
     (= v_28 S)
     (= v_29 F)
     (= v_30 N)
     (= v_31 G)
     (= v_32 S)
     (= v_33 F))
      )
      (|<Main: void main(JayArray_java_lang_String)>_Block10_4|
  N
  G
  S
  F
  T
  K
  H
  D
  E
  O
  B
  A
  M
  v_30
  v_31
  v_32
  v_33
  J
  Q
  P
  W
  Z
  X
  V
  L
  I
  R)
    )
  )
)
(assert
  (forall ( (A Int) (B Int) (C Int) (D Int) (E Int) (F Int) (G Int) (H Int) (I Int) (J Int) (K Int) (L Int) (M Int) (N Int) (O Int) (P Int) (Q Int) (R Int) (S Int) (T Int) (U Int) (V Int) (W Int) (v_23 Int) (v_24 Int) (v_25 Int) (v_26 Int) ) 
    (=>
      (and
        (|<Main: void main(JayArray_java_lang_String)>_Block10_4|
  U
  W
  H
  I
  G
  M
  Q
  S
  C
  F
  E
  K
  N
  v_23
  v_24
  v_25
  v_26
  L
  V
  P
  R
  B
  D
  T
  J
  O
  A)
        (and (= v_23 U) (= v_24 W) (= v_25 H) (= v_26 I))
      )
      (|<Main: void main(JayArray_java_lang_String)>_Block10_5|
  U
  W
  H
  I
  G
  M
  Q
  S
  C
  F
  E
  K
  N
  L
  V
  P
  R
  B
  D)
    )
  )
)
(assert
  (forall ( (A Int) (B Int) (C Int) (D Int) (E Int) (F Int) (G Int) (H Int) (I Int) (J Int) (K Int) (L Int) (M Int) (N Int) (O Int) (P Int) (Q Int) (R Int) (S Int) (T Int) ) 
    (=>
      (and
        (|<Main: void main(JayArray_java_lang_String)>_Block10_5|
  D
  I
  G
  T
  F
  O
  K
  P
  A
  S
  J
  C
  Q
  E
  L
  H
  B
  N
  R)
        true
      )
      (|<Main: void main(JayArray_java_lang_String)>_Block10_6|
  D
  I
  G
  T
  F
  O
  K
  P
  A
  S
  J
  C
  Q
  M
  E
  L
  H
  B
  N
  R)
    )
  )
)
(assert
  (forall ( (A Int) (B Int) (C Int) (D Int) (E Int) (F Int) (G Int) (H Int) (I Int) (J Int) (K Int) (L Int) (M Int) (N Int) (O Int) (P Int) (Q Int) (R Int) (S Int) (T Int) ) 
    (=>
      (and
        (|<Main: void main(JayArray_java_lang_String)>_Block10_6|
  P
  Q
  F
  O
  S
  I
  D
  C
  A
  G
  J
  H
  T
  R
  E
  K
  N
  M
  L
  B)
        (and (<= R 2147483647) (<= (- 2147483648) R))
      )
      (|<Main: void main(JayArray_java_lang_String)>_Block10_7|
  P
  Q
  F
  O
  S
  I
  D
  C
  A
  G
  J
  H
  T
  R
  E
  K
  N
  M
  L
  B)
    )
  )
)
(assert
  (forall ( (A Int) (B Int) (C Int) (D Int) (E Int) (F Int) (G Int) (H Int) (I Int) (J Int) (K Int) (L Int) (M Int) (N Int) (O Int) (P Int) (Q Int) (R Int) (S Int) (T Int) (U Int) ) 
    (=>
      (and
        (|<Main: void main(JayArray_java_lang_String)>_Block10_7|
  O
  U
  D
  I
  T
  B
  H
  N
  Q
  P
  G
  E
  S
  C
  R
  A
  M
  L
  K
  J)
        (= F 0)
      )
      (|<Main: void main(JayArray_java_lang_String)>_Block10_8|
  O
  U
  D
  I
  T
  F
  B
  H
  N
  Q
  P
  G
  E
  S
  C
  R
  A
  M
  L
  K
  J)
    )
  )
)
(assert
  (forall ( (A Int) (B Int) (C Int) (D Int) (E Int) (F Int) (G Int) (H Int) (I Int) (J Int) (K Int) (L Int) (M Int) (N Int) (O Int) (P Int) (Q Int) (R Int) (S Int) (T Int) (U Int) ) 
    (=>
      (and
        (|<Main: void main(JayArray_java_lang_String)>_Block10_8|
  U
  T
  R
  O
  C
  I
  K
  B
  F
  P
  H
  M
  D
  A
  G
  Q
  E
  N
  L
  J
  S)
        true
      )
      (|<Main: void main(JayArray_java_lang_String)>_Block10_9|
  U
  T
  R
  O
  C
  K
  B
  F
  P
  H
  M
  D
  A
  G
  Q
  E
  N
  L
  J
  S)
    )
  )
)
(assert
  (forall ( (A Int) (B Int) (C Int) (D Int) (E Int) (F Int) (G Int) (H Int) (I Int) (J Int) (K Int) (L Int) (M Int) (N Int) (O Int) (P Int) (Q Int) (R Int) (S Int) (T Int) (U Int) ) 
    (=>
      (and
        (|<Main: void main(JayArray_java_lang_String)>_Block10_8|
  U
  I
  O
  A
  H
  Q
  N
  J
  K
  L
  S
  C
  P
  G
  D
  R
  F
  E
  M
  B
  T)
        (not (= Q 0))
      )
      |Assert #0: Main.java, line 13|
    )
  )
)
(assert
  (forall ( (A Int) (B Int) (C Int) (D Int) (E Int) (F Int) (G Int) (H Int) (I Int) (J Int) (K Int) (L Int) (M Int) (N Int) (O Int) (P Int) (Q Int) (R Int) (S Int) (T Int) ) 
    (=>
      (and
        (|<Main: void main(JayArray_java_lang_String)>_Block10_9|
  T
  G
  H
  S
  E
  K
  L
  F
  R
  D
  Q
  C
  P
  M
  J
  I
  O
  B
  N
  A)
        (<= 0 M)
      )
      (|<Main: void main(JayArray_java_lang_String)>_Block2|
  T
  G
  H
  S
  E
  K
  D
  Q
  C
  P
  M
  J
  I
  O
  B
  N
  A)
    )
  )
)
(assert
  (forall ( (A Int) (B Int) (C Int) (D Int) (E Int) (F Int) (G Int) (H Int) (I Int) (J Int) (K Int) (L Int) (M Int) (N Int) (O Int) (P Int) (Q Int) (R Int) ) 
    (=>
      (and
        (|<Main: void main(JayArray_java_lang_String)>_Block2|
  E
  I
  J
  P
  Q
  R
  K
  B
  M
  O
  G
  L
  N
  A
  F
  D
  C)
        (= H (+ 1 L))
      )
      (|<Main: void main(JayArray_java_lang_String)>_Block2_1| E I J P Q B M O G H)
    )
  )
)
(assert
  (forall ( (A Int) (B Int) (C Int) (D Int) (E Int) (F Int) (G Int) (H Int) (I Int) (J Int) (K Int) (L Int) (M Int) (v_13 Int) ) 
    (=>
      (and
        (|<Main: void main(JayArray_java_lang_String)>_Block2_1| J G I F C K M A D E)
        (and (= B 144) (= L 168) (= v_13 E))
      )
      (|<Main: void main(JayArray_java_lang_String)>_Block2_2|
  J
  G
  I
  F
  C
  K
  M
  A
  D
  E
  v_13
  L
  B
  H)
    )
  )
)
(assert
  (forall ( (A Int) (B Int) (C Int) (D Int) (E Int) (F Int) (G Int) (H Int) (I Int) (J Int) (K Int) (L Int) (M Int) (N Int) (O Int) ) 
    (=>
      (and
        (|<Main: void main(JayArray_java_lang_String)>_Block2_2|
  G
  A
  I
  C
  H
  D
  M
  F
  N
  E
  L
  B
  O
  J)
        (= K 4)
      )
      (|<JayArray_int: void <init>(int)>_pre| L B O J K E)
    )
  )
)
(assert
  (forall ( (A Int) (B Int) (C Int) (D Int) (E Int) (F Int) (G Int) (H Int) (I Int) (J Int) (K Int) (L Int) (M Int) (N Int) (O Int) (P Int) (Q Int) (R Int) (S Int) (T Int) (U Int) (V Int) ) 
    (=>
      (and
        (|<Main: void main(JayArray_java_lang_String)>_Block2_2|
  P
  B
  I
  L
  T
  V
  E
  F
  J
  C
  R
  S
  N
  O)
        (|<JayArray_int: void <init>(int)>_post| R S N O M C Q K U D G A H)
        (= M 4)
      )
      (|<Main: void main(JayArray_java_lang_String)>_Block2_3|
  P
  B
  I
  L
  T
  V
  E
  F
  J
  H
  R
  S
  N
  O
  D)
    )
  )
)
(assert
  (forall ( (A Int) (B Int) (C Int) (D Int) (E Int) (F Int) (G Int) (H Int) (I Int) (J Int) (K Int) (L Int) (M Int) (N Int) (O Int) ) 
    (=>
      (and
        (|<Main: void main(JayArray_java_lang_String)>_Block2_3|
  A
  K
  D
  F
  N
  G
  J
  I
  C
  M
  H
  E
  B
  O
  L)
        (= O L)
      )
      (|<Main: void main(JayArray_java_lang_String)>_Block2_4|
  A
  K
  D
  F
  N
  G
  J
  I
  C
  M
  H
  E
  B
  O)
    )
  )
)
(assert
  (forall ( (A Int) (B Int) (C Int) (D Int) (E Int) (F Int) (G Int) (H Int) (I Int) (J Int) (K Int) (L Int) (M Int) (N Int) (O Int) ) 
    (=>
      (and
        (|<Main: void main(JayArray_java_lang_String)>_Block2_4|
  I
  O
  M
  G
  N
  H
  A
  E
  L
  C
  F
  J
  K
  B)
        (or (and (= D 1) (= F 0)) (and (= D 0) (not (= F 0))))
      )
      (|<Main: void main(JayArray_java_lang_String)>_Block2_5|
  I
  O
  M
  G
  N
  D
  H
  A
  E
  L
  C
  F
  J
  K
  B)
    )
  )
)
(assert
  (forall ( (A Int) (B Int) (C Int) (D Int) (E Int) (F Int) (G Int) (H Int) (I Int) (J Int) (K Int) (L Int) (M Int) (N Int) (O Int) ) 
    (=>
      (and
        (|<Main: void main(JayArray_java_lang_String)>_Block2_5|
  J
  I
  K
  E
  N
  B
  M
  H
  C
  F
  L
  D
  O
  A
  G)
        true
      )
      (|<Main: void main(JayArray_java_lang_String)>_Block2_6|
  J
  I
  K
  E
  N
  M
  H
  C
  F
  L
  D
  O
  A
  G)
    )
  )
)
(assert
  (forall ( (A Int) (B Int) (C Int) (D Int) (E Int) (F Int) (G Int) (H Int) (I Int) (J Int) (K Int) (L Int) (M Int) (N Int) (O Int) ) 
    (=>
      (and
        (|<Main: void main(JayArray_java_lang_String)>_Block2_5|
  I
  N
  C
  F
  K
  E
  D
  G
  J
  M
  A
  L
  H
  O
  B)
        (not (= E 0))
      )
      |Assert #1: Main.java, line 18|
    )
  )
)
(assert
  (forall ( (A Int) (B Int) (C Int) (D Int) (E Int) (F Int) (G Int) (H Int) (I Int) (J Int) (K Int) (L Int) (M Int) (N Int) (v_14 Int) ) 
    (=>
      (and
        (|<Main: void main(JayArray_java_lang_String)>_Block2_6|
  J
  C
  A
  D
  M
  F
  K
  L
  N
  G
  B
  I
  H
  E)
        (= v_14 E)
      )
      (|<Main: void main(JayArray_java_lang_String)>_Block2_7|
  J
  C
  A
  D
  M
  E
  F
  K
  L
  N
  G
  B
  I
  H
  v_14)
    )
  )
)
(assert
  (forall ( (A Int) (B Int) (C Int) (D Int) (E Int) (F Int) (G Int) (H Int) (I Int) (J Int) (K Int) (L Int) (M Int) (N Int) (O Int) ) 
    (=>
      (and
        (|<Main: void main(JayArray_java_lang_String)>_Block2_7|
  O
  A
  I
  M
  E
  B
  J
  N
  C
  L
  D
  G
  K
  H
  F)
        (<= 0 (+ L (* (- 1) B)))
      )
      (|<Main: void main(JayArray_java_lang_String)>_Block4| O A I M E B J N C L D)
    )
  )
)
(assert
  (forall ( (A Int) (B Int) (C Int) (D Int) (E Int) (F Int) (G Int) (H Int) (I Int) (J Int) (K Int) (L Int) (M Int) (N Int) (O Int) ) 
    (=>
      (and
        (|<Main: void main(JayArray_java_lang_String)>_Block2_7|
  K
  C
  B
  G
  E
  N
  D
  I
  L
  M
  J
  A
  F
  O
  H)
        (not (<= 0 (+ M (* (- 1) N))))
      )
      (|<Main: void main(JayArray_java_lang_String)>_Block5|
  K
  C
  B
  G
  E
  N
  D
  I
  L
  M
  J
  A
  F
  O
  H)
    )
  )
)
(assert
  (forall ( (A Int) (B Int) (C Int) (D Int) (E Int) (F Int) (G Int) (H Int) (I Int) (J Int) (K Int) (L Int) ) 
    (=>
      (and
        (|<Main: void main(JayArray_java_lang_String)>_Block4| E A I L C K B F H J D)
        (= G (+ 1 D))
      )
      (|<Main: void main(JayArray_java_lang_String)>_Block4_1| E A I L C G)
    )
  )
)
(assert
  (forall ( (A Int) (B Int) (C Int) (D Int) (E Int) (F Int) (G Int) (H Int) (v_8 Int) ) 
    (=>
      (and
        (|<Main: void main(JayArray_java_lang_String)>_Block4_1| C D E F A H)
        (and (= B 210) (= G 252) (= v_8 H))
      )
      (|<Main: void main(JayArray_java_lang_String)>_Block4_2| C D E F A H G B v_8)
    )
  )
)
(assert
  (forall ( (A Int) (B Int) (C Int) (D Int) (E Int) (F Int) (G Int) (H Int) (I Int) ) 
    (=>
      (and
        (|<Main: void main(JayArray_java_lang_String)>_Block4_2| I H E D B A F G C)
        true
      )
      (|<java.lang.ArrayIndexOutOfBoundsException: void <init>()>_pre| A F G C)
    )
  )
)
(assert
  (forall ( (A Int) (B Int) (C Int) (D Int) (E Int) (F Int) (G Int) (H Int) (I Int) (J Int) (K Int) (L Int) (M Int) (N Int) (O Int) (P Int) (Q Int) (R Int) (S Int) (T Int) (U Int) (V Int) (W Int) (X Int) (Y Int) (Z Int) (A1 Int) (B1 Int) (C1 Int) ) 
    (=>
      (and
        (|<Main: void main(JayArray_java_lang_String)>_Block4_2| O V Q E L H U F G)
        (|<java.lang.ArrayIndexOutOfBoundsException: void <init>()>_post|
  H
  U
  F
  G
  C1
  M
  A1
  C
  Y
  R
  Z
  W
  A
  B
  B1
  K
  T
  D
  S
  J
  P
  I
  N
  X)
        true
      )
      (|<Main: void main(JayArray_java_lang_String)>_Block4_3| O V Q E L X)
    )
  )
)
(assert
  (forall ( (A Int) (B Int) (C Int) (D Int) (E Int) (F Int) (G Int) (H Int) (I Int) ) 
    (=>
      (and
        (|<Main: void main(JayArray_java_lang_String)>_Block4_3| I D E C B H)
        (and (= F 0) (= A 0) (= G 0))
      )
      (|<Main: void main(JayArray_java_lang_String)>_Block4_4| I D E C B G A F H)
    )
  )
)
(assert
  (forall ( (A Int) (B Int) (C Int) (D Int) (E Int) (F Int) (G Int) (H Int) (I Int) ) 
    (=>
      (and
        (|<Main: void main(JayArray_java_lang_String)>_Block4_4| G H C I B D E F A)
        true
      )
      |Assert #2: Main.java, line 20|
    )
  )
)
(assert
  (forall ( (A Int) (B Int) (C Int) (D Int) (E Int) (F Int) (G Int) (H Int) (I Int) (J Int) (K Int) (L Int) (M Int) (N Int) (O Int) ) 
    (=>
      (and
        (|<Main: void main(JayArray_java_lang_String)>_Block5|
  O
  L
  K
  M
  G
  A
  I
  D
  H
  E
  N
  J
  F
  C
  B)
        (<= E (- 1))
      )
      (|<Main: void main(JayArray_java_lang_String)>_Block4| O L K M G A I D H E N)
    )
  )
)
(assert
  (forall ( (A Int) (B Int) (C Int) (D Int) (E Int) (F Int) (G Int) (v_7 Int) (v_8 Int) (v_9 Int) (v_10 Int) (v_11 Int) (v_12 Int) ) 
    (=>
      (and
        (|<JayArray_int: void <init>(int)>_pre| D C B E G A)
        (and (= v_7 D) (= v_8 C) (= v_9 B) (= v_10 E) (= v_11 G) (= v_12 A))
      )
      (|<JayArray_int: void <init>(int)>_Block1|
  D
  C
  B
  E
  G
  A
  v_7
  v_8
  v_9
  v_10
  v_11
  v_12
  F)
    )
  )
)
(assert
  (forall ( (A Int) (B Int) (C Int) (D Int) (E Int) (F Int) (G Int) (v_7 Int) (v_8 Int) (v_9 Int) (v_10 Int) (v_11 Int) (v_12 Int) (v_13 Int) (v_14 Int) (v_15 Int) (v_16 Int) (v_17 Int) (v_18 Int) ) 
    (=>
      (and
        (|<JayArray_int: void <init>(int)>_Block1|
  A
  E
  G
  C
  D
  B
  v_7
  v_8
  v_9
  v_10
  v_11
  v_12
  F)
        (and (= v_7 A)
     (= v_8 E)
     (= v_9 G)
     (= v_10 C)
     (= v_11 D)
     (= v_12 B)
     (= v_13 A)
     (= v_14 E)
     (= v_15 G)
     (= v_16 C)
     (= v_17 D)
     (= v_18 B))
      )
      (|<JayArray_int: void <init>(int)>_Block1_1|
  A
  E
  G
  C
  D
  B
  v_13
  v_14
  v_15
  v_16
  v_17
  F
  v_18)
    )
  )
)
(assert
  (forall ( (A Int) (B Int) (C Int) (D Int) (E Int) (F Int) (G Int) (H Int) (I Int) (J Int) (K Int) (v_11 Int) (v_12 Int) (v_13 Int) (v_14 Int) (v_15 Int) (v_16 Int) (v_17 Int) (v_18 Int) (v_19 Int) (v_20 Int) ) 
    (=>
      (and
        (|<JayArray_int: void <init>(int)>_Block1_1|
  K
  A
  E
  G
  B
  H
  v_11
  v_12
  v_13
  v_14
  v_15
  D
  J)
        (and (= v_11 K)
     (= v_12 A)
     (= v_13 E)
     (= v_14 G)
     (= v_15 B)
     (= F 0)
     (= C 0)
     (= I 0)
     (= v_16 K)
     (= v_17 A)
     (= v_18 E)
     (= v_19 G)
     (= v_20 B))
      )
      (|<JayArray_int: void <init>(int)>_Block1_2|
  K
  A
  E
  G
  B
  H
  F
  I
  C
  v_16
  v_17
  v_18
  v_19
  v_20
  D
  J)
    )
  )
)
(assert
  (forall ( (A Int) (B Int) (C Int) (D Int) (E Int) (F Int) (G Int) (H Int) (I Int) (J Int) (K Int) (v_11 Int) (v_12 Int) (v_13 Int) (v_14 Int) (v_15 Int) (v_16 Int) (v_17 Int) (v_18 Int) (v_19 Int) (v_20 Int) (v_21 Int) ) 
    (=>
      (and
        (|<JayArray_int: void <init>(int)>_Block1_2|
  C
  B
  I
  K
  A
  J
  E
  G
  D
  v_11
  v_12
  v_13
  v_14
  v_15
  F
  H)
        (and (= v_11 C)
     (= v_12 B)
     (= v_13 I)
     (= v_14 K)
     (= v_15 A)
     (= v_16 A)
     (= v_17 C)
     (= v_18 B)
     (= v_19 I)
     (= v_20 K)
     (= v_21 A))
      )
      (|<JayArray_int: void <init>(int)>_Block1_3|
  C
  B
  I
  K
  A
  J
  v_16
  E
  G
  D
  v_17
  v_18
  v_19
  v_20
  v_21
  F
  H)
    )
  )
)
(assert
  (forall ( (A Int) (B Int) (C Int) (D Int) (E Int) (F Int) (G Int) (H Int) (I Int) (J Int) (K Int) (L Int) (M Int) (v_13 Int) (v_14 Int) (v_15 Int) (v_16 Int) (v_17 Int) (v_18 Int) (v_19 Int) (v_20 Int) (v_21 Int) (v_22 Int) ) 
    (=>
      (and
        (|<JayArray_int: void <init>(int)>_Block1_3|
  B
  J
  M
  E
  L
  H
  A
  I
  C
  G
  v_13
  v_14
  v_15
  v_16
  v_17
  K
  D)
        (and (= v_13 B)
     (= v_14 J)
     (= v_15 M)
     (= v_16 E)
     (= v_17 L)
     (= F 303)
     (= v_18 B)
     (= v_19 J)
     (= v_20 M)
     (= v_21 E)
     (= v_22 L))
      )
      (|<JayArray_int: void <init>(int)>_Block1_4|
  B
  J
  M
  E
  L
  H
  A
  F
  I
  C
  G
  v_18
  v_19
  v_20
  v_21
  v_22
  K
  D)
    )
  )
)
(assert
  (forall ( (A Int) (B Int) (C Int) (D Int) (E Int) (F Int) (G Int) (H Int) (I Int) (J Int) (K Int) (L Int) (M Int) (N Int) (v_14 Int) (v_15 Int) (v_16 Int) (v_17 Int) (v_18 Int) (v_19 Int) (v_20 Int) (v_21 Int) (v_22 Int) (v_23 Int) ) 
    (=>
      (and
        (|<JayArray_int: void <init>(int)>_Block1_4|
  E
  D
  L
  K
  B
  F
  H
  N
  I
  G
  J
  v_14
  v_15
  v_16
  v_17
  v_18
  M
  A)
        (and (= v_14 E)
     (= v_15 D)
     (= v_16 L)
     (= v_17 K)
     (= v_18 B)
     (= C 0)
     (= v_19 E)
     (= v_20 D)
     (= v_21 L)
     (= v_22 K)
     (= v_23 B))
      )
      (|<JayArray_int: void <init>(int)>_Block1_5|
  E
  D
  L
  K
  B
  F
  H
  N
  C
  I
  G
  J
  v_19
  v_20
  v_21
  v_22
  v_23
  M
  A)
    )
  )
)
(assert
  (forall ( (A Int) (B Int) (C Int) (D Int) (E Int) (F Int) (G Int) (H Int) (I Int) (J Int) (K Int) (L Int) (M Int) (N Int) (v_14 Int) (v_15 Int) (v_16 Int) (v_17 Int) (v_18 Int) ) 
    (=>
      (and
        (|<JayArray_int: void <init>(int)>_Block1_5|
  I
  F
  B
  K
  D
  E
  G
  L
  M
  N
  A
  H
  v_14
  v_15
  v_16
  v_17
  v_18
  J
  C)
        (and (= v_14 I) (= v_15 F) (= v_16 B) (= v_17 K) (= v_18 D))
      )
      (|<JayArray_int: void <init>(int)>_Block1_6| I F B K D E G L M N A H C)
    )
  )
)
(assert
  (forall ( (A Int) (B Int) (C Int) (D Int) (E Int) (F Int) (G Int) (H Int) (I Int) (J Int) (K Int) (L Int) (M Int) ) 
    (=>
      (and
        (|<JayArray_int: void <init>(int)>_Block1_6| I E C D G J M A L K B F H)
        true
      )
      (|<JayArray_int: void <init>(int)>_Block0| I E C D G J M A L K B F H)
    )
  )
)
(assert
  (forall ( (A Int) (B Int) (C Int) (D Int) (E Int) (F Int) (G Int) (H Int) (I Int) (J Int) (K Int) (L Int) (M Int) ) 
    (=>
      (and
        (|<JayArray_int: void <init>(int)>_Block0| F J G K M B E H I C D A L)
        true
      )
      (|<JayArray_int: void <init>(int)>_post| F J G K M B C D A E H I L)
    )
  )
)
(assert
  (forall ( (A Int) (B Int) (C Int) (D Int) (E Int) (F Int) (G Int) (H Int) (I Int) (J Int) (K Int) (L Int) (M Int) (N Int) (O Int) (P Int) (Q Int) (R Int) (S Int) (T Int) (v_20 Int) (v_21 Int) (v_22 Int) (v_23 Int) ) 
    (=>
      (and
        (|<java.lang.ArrayIndexOutOfBoundsException: void <init>()>_pre| O F R M)
        (and (= v_20 O) (= v_21 F) (= v_22 R) (= v_23 M))
      )
      (|<java.lang.ArrayIndexOutOfBoundsException: void <init>()>_Block0|
  O
  F
  R
  M
  v_20
  v_21
  v_22
  v_23
  I
  Q
  T
  D
  C
  E
  B
  L
  J
  G
  H
  A
  S
  K
  N
  P)
    )
  )
)
(assert
  (forall ( (A Int) (B Int) (C Int) (D Int) (E Int) (F Int) (G Int) (H Int) (I Int) (J Int) (K Int) (L Int) (M Int) (N Int) (O Int) (P Int) (Q Int) (R Int) (S Int) (T Int) (v_20 Int) (v_21 Int) (v_22 Int) (v_23 Int) (v_24 Int) (v_25 Int) (v_26 Int) (v_27 Int) ) 
    (=>
      (and
        (|<java.lang.ArrayIndexOutOfBoundsException: void <init>()>_Block0|
  E
  G
  S
  D
  v_20
  v_21
  v_22
  v_23
  R
  M
  T
  Q
  J
  O
  C
  F
  A
  I
  N
  L
  K
  B
  P
  H)
        (and (= v_20 E)
     (= v_21 G)
     (= v_22 S)
     (= v_23 D)
     (= v_24 E)
     (= v_25 G)
     (= v_26 S)
     (= v_27 D))
      )
      (|<java.lang.ArrayIndexOutOfBoundsException: void <init>()>_Block0_1|
  E
  G
  S
  D
  v_24
  v_25
  v_26
  v_27
  R
  M
  T
  Q
  J
  O
  C
  F
  A
  I
  N
  L
  K
  B
  P
  H)
    )
  )
)
(assert
  (forall ( (A Int) (B Int) (C Int) (D Int) (E Int) (F Int) (G Int) (H Int) (I Int) (J Int) (K Int) (L Int) (M Int) (N Int) (O Int) (P Int) (Q Int) (R Int) (S Int) (T Int) (U Int) (V Int) (W Int) (X Int) (v_24 Int) (v_25 Int) (v_26 Int) (v_27 Int) (v_28 Int) (v_29 Int) ) 
    (=>
      (and
        (|<java.lang.ArrayIndexOutOfBoundsException: void <init>()>_Block0_1|
  M
  D
  U
  Q
  v_24
  v_25
  v_26
  X
  G
  T
  I
  L
  J
  R
  N
  B
  S
  W
  A
  V
  P
  H
  O
  F)
        (and (= v_24 M)
     (= v_25 D)
     (= v_26 U)
     (= E 0)
     (= C 0)
     (= K 0)
     (= v_27 M)
     (= v_28 D)
     (= v_29 U))
      )
      (|<java.lang.ArrayIndexOutOfBoundsException: void <init>()>_Block0_2|
  M
  D
  U
  Q
  v_27
  v_28
  v_29
  K
  E
  C
  X
  G
  T
  I
  L
  J
  R
  N
  B
  S
  W
  A
  V
  P
  H
  O
  F)
    )
  )
)
(assert
  (forall ( (A Int) (B Int) (C Int) (D Int) (E Int) (F Int) (G Int) (H Int) (I Int) (J Int) (K Int) (L Int) (M Int) (N Int) (O Int) (P Int) (Q Int) (R Int) (S Int) (T Int) (U Int) (V Int) (W Int) (X Int) (v_24 Int) (v_25 Int) (v_26 Int) (v_27 Int) (v_28 Int) (v_29 Int) (v_30 Int) (v_31 Int) (v_32 Int) ) 
    (=>
      (and
        (|<java.lang.ArrayIndexOutOfBoundsException: void <init>()>_Block0_2|
  K
  F
  I
  V
  v_24
  v_25
  v_26
  H
  J
  L
  O
  M
  D
  X
  G
  Q
  C
  U
  R
  B
  N
  E
  S
  A
  T
  W
  P)
        (and (= v_24 K)
     (= v_25 F)
     (= v_26 I)
     (= v_27 K)
     (= v_28 F)
     (= v_29 I)
     (= v_30 M)
     (= v_31 D)
     (= v_32 X))
      )
      (|<java.lang.ArrayIndexOutOfBoundsException: void <init>()>_Block0_3|
  K
  F
  I
  V
  v_27
  v_28
  v_29
  M
  D
  X
  H
  J
  L
  O
  v_30
  v_31
  v_32
  G
  Q
  C
  U
  R
  B
  N
  E
  S
  A
  T
  W
  P)
    )
  )
)
(assert
  (forall ( (A Int) (B Int) (C Int) (D Int) (E Int) (F Int) (G Int) (H Int) (I Int) (J Int) (K Int) (L Int) (M Int) (N Int) (O Int) (P Int) (Q Int) (R Int) (S Int) (T Int) (U Int) (V Int) (W Int) (X Int) (Y Int) (Z Int) (A1 Int) (v_27 Int) (v_28 Int) (v_29 Int) (v_30 Int) (v_31 Int) (v_32 Int) (v_33 Int) (v_34 Int) (v_35 Int) ) 
    (=>
      (and
        (|<java.lang.ArrayIndexOutOfBoundsException: void <init>()>_Block0_3|
  Q
  W
  C
  F
  v_27
  v_28
  v_29
  N
  Z
  V
  G
  U
  X
  R
  K
  E
  P
  Y
  J
  D
  B
  T
  S
  A1
  L
  O
  H
  M
  A
  I)
        (and (= v_27 Q)
     (= v_28 W)
     (= v_29 C)
     (= v_30 Q)
     (= v_31 W)
     (= v_32 C)
     (= v_33 Y)
     (= v_34 J)
     (= v_35 D))
      )
      (|<java.lang.ArrayIndexOutOfBoundsException: void <init>()>_Block0_4|
  Q
  W
  C
  F
  v_30
  v_31
  v_32
  N
  Z
  V
  Y
  J
  D
  G
  U
  X
  R
  K
  E
  P
  v_33
  v_34
  v_35
  B
  T
  S
  A1
  L
  O
  H
  M
  A
  I)
    )
  )
)
(assert
  (forall ( (A Int) (B Int) (C Int) (D Int) (E Int) (F Int) (G Int) (H Int) (I Int) (J Int) (K Int) (L Int) (M Int) (N Int) (O Int) (P Int) (Q Int) (R Int) (S Int) (T Int) (U Int) (V Int) (W Int) (X Int) (Y Int) (Z Int) (A1 Int) (B1 Int) (C1 Int) (D1 Int) (v_30 Int) (v_31 Int) (v_32 Int) (v_33 Int) (v_34 Int) (v_35 Int) (v_36 Int) (v_37 Int) (v_38 Int) ) 
    (=>
      (and
        (|<java.lang.ArrayIndexOutOfBoundsException: void <init>()>_Block0_4|
  H
  G
  Z
  T
  v_30
  v_31
  v_32
  Y
  K
  B
  C1
  O
  L
  B1
  I
  A1
  R
  C
  N
  S
  F
  Q
  E
  D1
  U
  X
  D
  A
  J
  M
  P
  W
  V)
        (and (= v_30 H)
     (= v_31 G)
     (= v_32 Z)
     (= v_33 H)
     (= v_34 G)
     (= v_35 Z)
     (= v_36 D1)
     (= v_37 U)
     (= v_38 X))
      )
      (|<java.lang.ArrayIndexOutOfBoundsException: void <init>()>_Block0_5|
  H
  G
  Z
  T
  v_33
  v_34
  v_35
  Y
  K
  B
  C1
  O
  L
  D1
  U
  X
  B1
  I
  A1
  R
  C
  N
  S
  F
  Q
  E
  v_36
  v_37
  v_38
  D
  A
  J
  M
  P
  W
  V)
    )
  )
)
(assert
  (forall ( (A Int) (B Int) (C Int) (D Int) (E Int) (F Int) (G Int) (H Int) (I Int) (J Int) (K Int) (L Int) (M Int) (N Int) (O Int) (P Int) (Q Int) (R Int) (S Int) (T Int) (U Int) (V Int) (W Int) (X Int) (Y Int) (Z Int) (A1 Int) (B1 Int) (C1 Int) (D1 Int) (E1 Int) (F1 Int) (G1 Int) (v_33 Int) (v_34 Int) (v_35 Int) (v_36 Int) (v_37 Int) (v_38 Int) (v_39 Int) (v_40 Int) (v_41 Int) (v_42 Int) ) 
    (=>
      (and
        (|<java.lang.ArrayIndexOutOfBoundsException: void <init>()>_Block0_5|
  U
  F1
  H
  N
  v_33
  v_34
  v_35
  E
  M
  I
  B
  E1
  Q
  G1
  Z
  T
  P
  K
  V
  S
  W
  Y
  G
  A1
  A
  C
  F
  J
  B1
  C1
  X
  O
  D1
  D
  R
  L)
        (and (= v_33 U)
     (= v_34 F1)
     (= v_35 H)
     (= v_36 U)
     (= v_37 F1)
     (= v_38 H)
     (= v_39 C1)
     (= v_40 X)
     (= v_41 O)
     (= v_42 D1))
      )
      (|<java.lang.ArrayIndexOutOfBoundsException: void <init>()>_Block0_6|
  U
  F1
  H
  N
  v_36
  v_37
  v_38
  E
  M
  I
  B
  E1
  Q
  G1
  Z
  T
  C1
  X
  O
  D1
  P
  K
  V
  S
  W
  Y
  G
  A1
  A
  C
  F
  J
  B1
  v_39
  v_40
  v_41
  v_42
  D
  R
  L)
    )
  )
)
(assert
  (forall ( (A Int) (B Int) (C Int) (D Int) (E Int) (F Int) (G Int) (H Int) (I Int) (J Int) (K Int) (L Int) (M Int) (N Int) (O Int) (P Int) (Q Int) (R Int) (S Int) (T Int) (U Int) (V Int) (W Int) (X Int) (Y Int) (Z Int) (A1 Int) (B1 Int) (C1 Int) (D1 Int) (E1 Int) (F1 Int) (G1 Int) (H1 Int) (I1 Int) (J1 Int) (K1 Int) (v_37 Int) (v_38 Int) (v_39 Int) (v_40 Int) (v_41 Int) (v_42 Int) (v_43 Int) (v_44 Int) (v_45 Int) ) 
    (=>
      (and
        (|<java.lang.ArrayIndexOutOfBoundsException: void <init>()>_Block0_6|
  H1
  D
  A
  K1
  v_37
  v_38
  v_39
  M
  Q
  O
  I1
  D1
  L
  F1
  F
  G
  Y
  G1
  T
  X
  E
  N
  B
  C
  J
  Z
  K
  R
  B1
  C1
  V
  H
  J1
  W
  U
  I
  S
  P
  E1
  A1)
        (and (= v_37 H1)
     (= v_38 D)
     (= v_39 A)
     (= v_40 H1)
     (= v_41 D)
     (= v_42 A)
     (= v_43 P)
     (= v_44 E1)
     (= v_45 A1))
      )
      (|<java.lang.ArrayIndexOutOfBoundsException: void <init>()>_Block0_7|
  H1
  D
  A
  K1
  v_40
  v_41
  v_42
  M
  Q
  O
  I1
  D1
  L
  F1
  F
  G
  Y
  G1
  T
  X
  P
  E1
  A1
  E
  N
  B
  C
  J
  Z
  K
  R
  B1
  C1
  V
  H
  J1
  W
  U
  I
  S
  v_43
  v_44
  v_45)
    )
  )
)
(assert
  (forall ( (A Int) (B Int) (C Int) (D Int) (E Int) (F Int) (G Int) (H Int) (I Int) (J Int) (K Int) (L Int) (M Int) (N Int) (O Int) (P Int) (Q Int) (R Int) (S Int) (T Int) (U Int) (V Int) (W Int) (X Int) (Y Int) (Z Int) (A1 Int) (B1 Int) (C1 Int) (D1 Int) (E1 Int) (F1 Int) (G1 Int) (H1 Int) (I1 Int) (J1 Int) (K1 Int) (L1 Int) (M1 Int) (N1 Int) (v_40 Int) (v_41 Int) (v_42 Int) ) 
    (=>
      (and
        (|<java.lang.ArrayIndexOutOfBoundsException: void <init>()>_Block0_7|
  X
  N
  C1
  G
  v_40
  v_41
  v_42
  T
  K1
  L1
  Y
  G1
  O
  E1
  B1
  N1
  W
  H1
  L
  A1
  M1
  M
  H
  F
  Q
  V
  S
  D1
  R
  J1
  C
  I1
  Z
  E
  U
  D
  I
  J
  K
  B
  P
  A
  F1)
        (and (= v_40 X) (= v_41 N) (= v_42 C1))
      )
      (|<java.lang.ArrayIndexOutOfBoundsException: void <init>()>_Block0_8|
  X
  N
  C1
  G
  T
  K1
  L1
  Y
  G1
  O
  E1
  B1
  N1
  W
  H1
  L
  A1
  M1
  M
  H
  F
  Q
  V
  S)
    )
  )
)
(assert
  (forall ( (A Int) (B Int) (C Int) (D Int) (E Int) (F Int) (G Int) (H Int) (I Int) (J Int) (K Int) (L Int) (M Int) (N Int) (O Int) (P Int) (Q Int) (R Int) (S Int) (T Int) (U Int) (V Int) (W Int) (X Int) ) 
    (=>
      (and
        (|<java.lang.ArrayIndexOutOfBoundsException: void <init>()>_Block0_8|
  E
  Q
  N
  V
  B
  I
  J
  P
  U
  O
  R
  K
  T
  W
  S
  D
  C
  M
  F
  L
  H
  A
  X
  G)
        true
      )
      (|<java.lang.ArrayIndexOutOfBoundsException: void <init>()>_post|
  E
  Q
  N
  V
  H
  A
  X
  B
  I
  J
  P
  U
  O
  R
  K
  T
  W
  S
  D
  C
  M
  F
  L
  G)
    )
  )
)
(assert
  (forall ( (A Int) (B Int) (C Int) (D Int) (E Int) ) 
    (=>
      (and
        true
      )
      (|<Main: void main(JayArray_java_lang_String)>_pre| C B E D A)
    )
  )
)
(assert
  (forall ( (CHC_COMP_UNUSED Bool) ) 
    (=>
      (and
        |Assert #0: Main.java, line 13|
        true
      )
      CHC_COMP_FALSE
    )
  )
)
(assert
  (forall ( (CHC_COMP_UNUSED Bool) ) 
    (=>
      (and
        |Assert #1: Main.java, line 18|
        true
      )
      CHC_COMP_FALSE
    )
  )
)
(assert
  (forall ( (CHC_COMP_UNUSED Bool) ) 
    (=>
      (and
        |Assert #2: Main.java, line 20|
        true
      )
      CHC_COMP_FALSE
    )
  )
)
(assert
  (forall ( (CHC_COMP_UNUSED Bool) ) 
    (=>
      (and
        CHC_COMP_FALSE
      )
      false
    )
  )
)

(check-sat)
(exit)
